p cnf 256 1
256 0
w 1 0.340227
w 2 1 0
w 2 -1 1
w 3 2 0.352351
w 3 -2 0.548142
w 4 3 0.954205
w 4 -3 0.925068
w 5 4 1
w 5 -4 0
w 6 5 0
w 6 -5 1
w 7 6 1
w 7 -6 0
w 8 7 0.487174
w 8 -7 0.181779
w 9 8 0.593518
w 9 -8 0.338693
w 10 9 0
w 10 -9 1
w 11 10 0.40581
w 11 -10 0.0110304
w 12 11 0.390453
w 12 -11 0.729221
w 13 12 0.231002
w 13 -12 0.0694482
w 14 13 0.506933
w 14 -13 0.041464
w 15 14 0
w 15 -14 1
w 16 15 0.101554
w 16 -15 0.980144
w 17 1 0.386213
w 17 -1 0.292915
w 18 17 2 0.543087
w 18 17 -2 0.284217
w 18 -17 2 0.550259
w 18 -17 -2 0.030261
w 19 18 3 1
w 19 18 -3 0
w 19 -18 3 1
w 19 -18 -3 0
w 20 19 4 1
w 20 19 -4 0
w 20 -19 4 0
w 20 -19 -4 0
w 21 20 5 0
w 21 20 -5 1
w 21 -20 5 0
w 21 -20 -5 1
w 22 21 6 1
w 22 21 -6 1
w 22 -21 6 0
w 22 -21 -6 1
w 23 22 7 1
w 23 22 -7 0
w 23 -22 7 0
w 23 -22 -7 0
w 24 23 8 1
w 24 23 -8 0
w 24 -23 8 0
w 24 -23 -8 1
w 25 24 9 0.083476
w 25 24 -9 0.922859
w 25 -24 9 0.202713
w 25 -24 -9 0.888166
w 26 25 10 0
w 26 25 -10 0
w 26 -25 10 1
w 26 -25 -10 0
w 27 26 11 0
w 27 26 -11 1
w 27 -26 11 0
w 27 -26 -11 0
w 28 27 12 0.161751
w 28 27 -12 0.0410403
w 28 -27 12 0.0511892
w 28 -27 -12 0.679569
w 29 28 13 1
w 29 28 -13 1
w 29 -28 13 0
w 29 -28 -13 1
w 30 29 14 1
w 30 29 -14 1
w 30 -29 14 0
w 30 -29 -14 1
w 31 30 15 1
w 31 30 -15 1
w 31 -30 15 0
w 31 -30 -15 0
w 32 31 16 1
w 32 31 -16 1
w 32 -31 16 1
w 32 -31 -16 0
w 33 17 0.52361
w 33 -17 0.582093
w 34 33 18 0.314891
w 34 33 -18 0.618006
w 34 -33 18 0.641652
w 34 -33 -18 0.476642
w 35 34 19 0.692841
w 35 34 -19 0.156211
w 35 -34 19 0.76029
w 35 -34 -19 0.792671
w 36 35 20 0
w 36 35 -20 0
w 36 -35 20 0
w 36 -35 -20 1
w 37 36 21 0.61288
w 37 36 -21 0.46906
w 37 -36 21 0.31726
w 37 -36 -21 0.0450128
w 38 37 22 0.697319
w 38 37 -22 0.679858
w 38 -37 22 0.708838
w 38 -37 -22 0.471165
w 39 38 23 1
w 39 38 -23 0
w 39 -38 23 0
w 39 -38 -23 1
w 40 39 24 1
w 40 39 -24 0
w 40 -39 24 1
w 40 -39 -24 1
w 41 40 25 0
w 41 40 -25 1
w 41 -40 25 1
w 41 -40 -25 0
w 42 41 26 0.943144
w 42 41 -26 0.0368535
w 42 -41 26 0.442458
w 42 -41 -26 0.702824
w 43 42 27 0
w 43 42 -27 1
w 43 -42 27 1
w 43 -42 -27 1
w 44 43 28 0
w 44 43 -28 1
w 44 -43 28 0
w 44 -43 -28 1
w 45 44 29 0.0452577
w 45 44 -29 0.252985
w 45 -44 29 0.303801
w 45 -44 -29 0.56304
w 46 45 30 0.401433
w 46 45 -30 0.009716
w 46 -45 30 0.648368
w 46 -45 -30 0.117071
w 47 46 31 1
w 47 46 -31 1
w 47 -46 31 1
w 47 -46 -31 0
w 48 47 32 0.453054
w 48 47 -32 0.411283
w 48 -47 32 0.663584
w 48 -47 -32 0.895511
w 49 33 1
w 49 -33 0
w 50 49 34 0
w 50 49 -34 0
w 50 -49 34 1
w 50 -49 -34 0
w 51 50 35 1
w 51 50 -35 1
w 51 -50 35 0
w 51 -50 -35 0
w 52 51 36 0.976655
w 52 51 -36 0.226966
w 52 -51 36 0.439399
w 52 -51 -36 0.769886
w 53 52 37 0.449115
w 53 52 -37 0.418254
w 53 -52 37 0.74547
w 53 -52 -37 0.547159
w 54 53 38 0
w 54 53 -38 1
w 54 -53 38 1
w 54 -53 -38 1
w 55 54 39 0.277823
w 55 54 -39 0.527541
w 55 -54 39 0.774938
w 55 -54 -39 0.391929
w 56 55 40 0.972967
w 56 55 -40 0.821739
w 56 -55 40 0.56452
w 56 -55 -40 0.790773
w 57 56 41 0.0518421
w 57 56 -41 0.925676
w 57 -56 41 0.443367
w 57 -56 -41 0.775512
w 58 57 42 0.319726
w 58 57 -42 0.752167
w 58 -57 42 0.0758067
w 58 -57 -42 0.759126
w 59 58 43 0.704205
w 59 58 -43 0.208241
w 59 -58 43 0.940307
w 59 -58 -43 0.449675
w 60 59 44 0.338709
w 60 59 -44 0.686901
w 60 -59 44 0.181773
w 60 -59 -44 0.205249
w 61 60 45 0.0611994
w 61 60 -45 0.483072
w 61 -60 45 0.0783987
w 61 -60 -45 0.836137
w 62 61 46 0.683107
w 62 61 -46 0.809104
w 62 -61 46 0.696741
w 62 -61 -46 0.247628
w 63 62 47 0.309007
w 63 62 -47 0.29947
w 63 -62 47 0.525554
w 63 -62 -47 0.752374
w 64 63 48 0
w 64 63 -48 1
w 64 -63 48 0
w 64 -63 -48 1
w 65 49 0.349203
w 65 -49 0.154407
w 66 65 50 1
w 66 65 -50 0
w 66 -65 50 1
w 66 -65 -50 0
w 67 66 51 1
w 67 66 -51 1
w 67 -66 51 1
w 67 -66 -51 0
w 68 67 52 1
w 68 67 -52 0
w 68 -67 52 0
w 68 -67 -52 1
w 69 68 53 0.888281
w 69 68 -53 0.850975
w 69 -68 53 0.282959
w 69 -68 -53 0.197287
w 70 69 54 0
w 70 69 -54 0
w 70 -69 54 1
w 70 -69 -54 0
w 71 70 55 0
w 71 70 -55 1
w 71 -70 55 0
w 71 -70 -55 1
w 72 71 56 0.892455
w 72 71 -56 0.691289
w 72 -71 56 0.391598
w 72 -71 -56 0.687323
w 73 72 57 1
w 73 72 -57 0
w 73 -72 57 0
w 73 -72 -57 1
w 74 73 58 0.469513
w 74 73 -58 0.444661
w 74 -73 58 0.575781
w 74 -73 -58 0.661053
w 75 74 59 0
w 75 74 -59 1
w 75 -74 59 1
w 75 -74 -59 1
w 76 75 60 0.0494266
w 76 75 -60 0.350334
w 76 -75 60 0.696282
w 76 -75 -60 0.274853
w 77 76 61 0.718043
w 77 76 -61 0.327429
w 77 -76 61 0.166351
w 77 -76 -61 0.57103
w 78 77 62 0.953866
w 78 77 -62 0.463485
w 78 -77 62 0.420497
w 78 -77 -62 0.345464
w 79 78 63 1
w 79 78 -63 0
w 79 -78 63 1
w 79 -78 -63 0
w 80 79 64 0.516575
w 80 79 -64 0.36249
w 80 -79 64 0.997127
w 80 -79 -64 0.0923562
w 81 65 0
w 81 -65 1
w 82 81 66 1
w 82 81 -66 1
w 82 -81 66 0
w 82 -81 -66 1
w 83 82 67 0.243375
w 83 82 -67 0.0157793
w 83 -82 67 0.268397
w 83 -82 -67 0.776616
w 84 83 68 0.595826
w 84 83 -68 0.942967
w 84 -83 68 0.304852
w 84 -83 -68 0.325034
w 85 84 69 0.768337
w 85 84 -69 0.745531
w 85 -84 69 0.242297
w 85 -84 -69 0.919145
w 86 85 70 1
w 86 85 -70 0
w 86 -85 70 1
w 86 -85 -70 0
w 87 86 71 0
w 87 86 -71 1
w 87 -86 71 0
w 87 -86 -71 0
w 88 87 72 0.694066
w 88 87 -72 0.337423
w 88 -87 72 0.809188
w 88 -87 -72 0.587107
w 89 88 73 0.802732
w 89 88 -73 0.830482
w 89 -88 73 0.672699
w 89 -88 -73 0.0711291
w 90 89 74 0.406522
w 90 89 -74 0.666955
w 90 -89 74 0.550065
w 90 -89 -74 0.711374
w 91 90 75 0.446898
w 91 90 -75 0.479712
w 91 -90 75 0.737521
w 91 -90 -75 0.689196
w 92 91 76 0
w 92 91 -76 0
w 92 -91 76 0
w 92 -91 -76 1
w 93 92 77 0.383264
w 93 92 -77 0.34257
w 93 -92 77 0.602282
w 93 -92 -77 0.726112
w 94 93 78 0
w 94 93 -78 0
w 94 -93 78 0
w 94 -93 -78 1
w 95 94 79 0
w 95 94 -79 1
w 95 -94 79 0
w 95 -94 -79 0
w 96 95 80 0
w 96 95 -80 0
w 96 -95 80 0
w 96 -95 -80 1
w 97 81 0
w 97 -81 1
w 98 97 82 0.131023
w 98 97 -82 0.770621
w 98 -97 82 0.769924
w 98 -97 -82 0.0905612
w 99 98 83 0.371491
w 99 98 -83 0.872908
w 99 -98 83 0.286659
w 99 -98 -83 0.714061
w 100 99 84 0
w 100 99 -84 1
w 100 -99 84 0
w 100 -99 -84 1
w 101 100 85 0
w 101 100 -85 1
w 101 -100 85 0
w 101 -100 -85 0
w 102 101 86 1
w 102 101 -86 0
w 102 -101 86 0
w 102 -101 -86 0
w 103 102 87 0.214063
w 103 102 -87 0.0754627
w 103 -102 87 0.159624
w 103 -102 -87 0.585828
w 104 103 88 0.290647
w 104 103 -88 0.356449
w 104 -103 88 0.392255
w 104 -103 -88 0.381208
w 105 104 89 1
w 105 104 -89 1
w 105 -104 89 1
w 105 -104 -89 0
w 106 105 90 0.559273
w 106 105 -90 0.298984
w 106 -105 90 0.671848
w 106 -105 -90 0.992222
w 107 106 91 0.890931
w 107 106 -91 0.432456
w 107 -106 91 0.931872
w 107 -106 -91 0.189287
w 108 107 92 0.073203
w 108 107 -92 0.638045
w 108 -107 92 0.433324
w 108 -107 -92 0.395213
w 109 108 93 0.15112
w 109 108 -93 0.609276
w 109 -108 93 0.979623
w 109 -108 -93 0.310743
w 110 109 94 1
w 110 109 -94 1
w 110 -109 94 1
w 110 -109 -94 0
w 111 110 95 0.811396
w 111 110 -95 0.757955
w 111 -110 95 0.236714
w 111 -110 -95 0.357899
w 112 111 96 1
w 112 111 -96 0
w 112 -111 96 0
w 112 -111 -96 1
w 113 97 0.0994458
w 113 -97 0.528798
w 114 113 98 1
w 114 113 -98 1
w 114 -113 98 0
w 114 -113 -98 0
w 115 114 99 1
w 115 114 -99 0
w 115 -114 99 1
w 115 -114 -99 1
w 116 115 100 0
w 116 115 -100 1
w 116 -115 100 1
w 116 -115 -100 1
w 117 116 101 0.836075
w 117 116 -101 0.531483
w 117 -116 101 0.667062
w 117 -116 -101 0.59403
w 118 117 102 0.0249613
w 118 117 -102 0.829792
w 118 -117 102 0.734217
w 118 -117 -102 0.942133
w 119 118 103 0
w 119 118 -103 0
w 119 -118 103 0
w 119 -118 -103 1
w 120 119 104 1
w 120 119 -104 0
w 120 -119 104 0
w 120 -119 -104 1
w 121 120 105 0.731315
w 121 120 -105 0.099558
w 121 -120 105 0.235388
w 121 -120 -105 0.368066
w 122 121 106 1
w 122 121 -106 0
w 122 -121 106 0
w 122 -121 -106 0
w 123 122 107 0.368347
w 123 122 -107 0.153242
w 123 -122 107 0.395927
w 123 -122 -107 0.0354096
w 124 123 108 0.164124
w 124 123 -108 0.0603708
w 124 -123 108 0.577064
w 124 -123 -108 0.89834
w 125 124 109 0
w 125 124 -109 0
w 125 -124 109 1
w 125 -124 -109 0
w 126 125 110 1
w 126 125 -110 0
w 126 -125 110 1
w 126 -125 -110 1
w 127 126 111 0.0244067
w 127 126 -111 0.600273
w 127 -126 111 0.000759686
w 127 -126 -111 0.392473
w 128 127 112 0.47606
w 128 127 -112 0.708033
w 128 -127 112 0.321522
w 128 -127 -112 0.793227
w 129 113 0.689869
w 129 -113 0.946469
w 130 129 114 0.725278
w 130 129 -114 0.693741
w 130 -129 114 0.132527
w 130 -129 -114 0.785649
w 131 130 115 0
w 131 130 -115 1
w 131 -130 115 1
w 131 -130 -115 1
w 132 131 116 0.472599
w 132 131 -116 0.689591
w 132 -131 116 0.518888
w 132 -131 -116 0.262874
w 133 132 117 0.0196031
w 133 132 -117 0.0282457
w 133 -132 117 0.0070891
w 133 -132 -117 0.619876
w 134 133 118 0
w 134 133 -118 0
w 134 -133 118 1
w 134 -133 -118 1
w 135 134 119 0.298292
w 135 134 -119 0.680071
w 135 -134 119 0.440108
w 135 -134 -119 0.244761
w 136 135 120 0.165386
w 136 135 -120 0.938502
w 136 -135 120 0.781002
w 136 -135 -120 0.951035
w 137 136 121 0
w 137 136 -121 0
w 137 -136 121 1
w 137 -136 -121 1
w 138 137 122 1
w 138 137 -122 1
w 138 -137 122 1
w 138 -137 -122 0
w 139 138 123 0.0536456
w 139 138 -123 0.578205
w 139 -138 123 0.876879
w 139 -138 -123 0.0607347
w 140 139 124 1
w 140 139 -124 0
w 140 -139 124 0
w 140 -139 -124 0
w 141 140 125 0.377037
w 141 140 -125 0.709242
w 141 -140 125 0.247962
w 141 -140 -125 0.817145
w 142 141 126 0.896437
w 142 141 -126 0.982531
w 142 -141 126 0.892505
w 142 -141 -126 0.677438
w 143 142 127 0.101813
w 143 142 -127 0.489307
w 143 -142 127 0.672755
w 143 -142 -127 0.52353
w 144 143 128 0.0541271
w 144 143 -128 0.563243
w 144 -143 128 0.188228
w 144 -143 -128 0.12509
w 145 129 0
w 145 -129 1
w 146 145 130 1
w 146 145 -130 0
w 146 -145 130 0
w 146 -145 -130 1
w 147 146 131 0.699767
w 147 146 -131 0.524928
w 147 -146 131 0.230574
w 147 -146 -131 0.267658
w 148 147 132 0.939815
w 148 147 -132 0.515621
w 148 -147 132 0.71911
w 148 -147 -132 0.893818
w 149 148 133 1
w 149 148 -133 1
w 149 -148 133 1
w 149 -148 -133 0
w 150 149 134 0.307961
w 150 149 -134 0.411667
w 150 -149 134 0.181272
w 150 -149 -134 0.362089
w 151 150 135 0.369499
w 151 150 -135 0.487179
w 151 -150 135 0.096755
w 151 -150 -135 0.40636
w 152 151 136 0.796805
w 152 151 -136 0.3201
w 152 -151 136 0.905386
w 152 -151 -136 0.694935
w 153 152 137 0
w 153 152 -137 1
w 153 -152 137 1
w 153 -152 -137 1
w 154 153 138 1
w 154 153 -138 0
w 154 -153 138 0
w 154 -153 -138 0
w 155 154 139 0.542579
w 155 154 -139 0.990255
w 155 -154 139 0.889985
w 155 -154 -139 0.177786
w 156 155 140 0.468789
w 156 155 -140 0.485747
w 156 -155 140 0.290059
w 156 -155 -140 0.650061
w 157 156 141 0.264969
w 157 156 -141 0.01956
w 157 -156 141 0.335015
w 157 -156 -141 0.361724
w 158 157 142 0
w 158 157 -142 0
w 158 -157 142 0
w 158 -157 -142 1
w 159 158 143 0.885745
w 159 158 -143 0.511468
w 159 -158 143 0.0733273
w 159 -158 -143 0.256043
w 160 159 144 0
w 160 159 -144 1
w 160 -159 144 1
w 160 -159 -144 0
w 161 145 0.573201
w 161 -145 0.578673
w 162 161 146 0.463186
w 162 161 -146 0.756459
w 162 -161 146 0.638735
w 162 -161 -146 0.931975
w 163 162 147 0
w 163 162 -147 1
w 163 -162 147 1
w 163 -162 -147 0
w 164 163 148 0.425056
w 164 163 -148 0.555487
w 164 -163 148 0.027516
w 164 -163 -148 0.425986
w 165 164 149 0.773537
w 165 164 -149 0.332301
w 165 -164 149 0.56748
w 165 -164 -149 0.659282
w 166 165 150 0.640807
w 166 165 -150 0.915324
w 166 -165 150 0.228049
w 166 -165 -150 0.835963
w 167 166 151 1
w 167 166 -151 1
w 167 -166 151 0
w 167 -166 -151 1
w 168 167 152 1
w 168 167 -152 1
w 168 -167 152 0
w 168 -167 -152 1
w 169 168 153 0
w 169 168 -153 0
w 169 -168 153 0
w 169 -168 -153 1
w 170 169 154 0
w 170 169 -154 0
w 170 -169 154 1
w 170 -169 -154 0
w 171 170 155 0
w 171 170 -155 0
w 171 -170 155 1
w 171 -170 -155 0
w 172 171 156 0.250994
w 172 171 -156 0.528413
w 172 -171 156 0.7946
w 172 -171 -156 0.0869567
w 173 172 157 0
w 173 172 -157 0
w 173 -172 157 1
w 173 -172 -157 1
w 174 173 158 0
w 174 173 -158 0
w 174 -173 158 1
w 174 -173 -158 0
w 175 174 159 0
w 175 174 -159 1
w 175 -174 159 1
w 175 -174 -159 1
w 176 175 160 0
w 176 175 -160 0
w 176 -175 160 1
w 176 -175 -160 0
w 177 161 0.21358
w 177 -161 0.683521
w 178 177 162 0
w 178 177 -162 1
w 178 -177 162 0
w 178 -177 -162 1
w 179 178 163 1
w 179 178 -163 1
w 179 -178 163 0
w 179 -178 -163 1
w 180 179 164 0.209353
w 180 179 -164 0.964952
w 180 -179 164 0.899805
w 180 -179 -164 0.615822
w 181 180 165 0.823822
w 181 180 -165 0.991414
w 181 -180 165 0.648218
w 181 -180 -165 0.327278
w 182 181 166 0.253986
w 182 181 -166 0.603937
w 182 -181 166 0.997668
w 182 -181 -166 0.824247
w 183 182 167 1
w 183 182 -167 0
w 183 -182 167 1
w 183 -182 -167 1
w 184 183 168 0
w 184 183 -168 1
w 184 -183 168 0
w 184 -183 -168 0
w 185 184 169 0.763253
w 185 184 -169 0.221016
w 185 -184 169 0.0177437
w 185 -184 -169 0.603284
w 186 185 170 0.644178
w 186 185 -170 0.812638
w 186 -185 170 0.741175
w 186 -185 -170 0.543983
w 187 186 171 0
w 187 186 -171 1
w 187 -186 171 1
w 187 -186 -171 0
w 188 187 172 0.338038
w 188 187 -172 0.225266
w 188 -187 172 0.29902
w 188 -187 -172 0.335706
w 189 188 173 1
w 189 188 -173 1
w 189 -188 173 1
w 189 -188 -173 0
w 190 189 174 1
w 190 189 -174 0
w 190 -189 174 0
w 190 -189 -174 1
w 191 190 175 0
w 191 190 -175 0
w 191 -190 175 1
w 191 -190 -175 0
w 192 191 176 0
w 192 191 -176 1
w 192 -191 176 0
w 192 -191 -176 1
w 193 177 1
w 193 -177 0
w 194 193 178 0
w 194 193 -178 1
w 194 -193 178 1
w 194 -193 -178 1
w 195 194 179 1
w 195 194 -179 0
w 195 -194 179 0
w 195 -194 -179 0
w 196 195 180 0
w 196 195 -180 1
w 196 -195 180 0
w 196 -195 -180 0
w 197 196 181 0.937633
w 197 196 -181 0.742016
w 197 -196 181 0.572699
w 197 -196 -181 0.0436922
w 198 197 182 0.357543
w 198 197 -182 0.370768
w 198 -197 182 0.789014
w 198 -197 -182 0.745671
w 199 198 183 0
w 199 198 -183 1
w 199 -198 183 0
w 199 -198 -183 0
w 200 199 184 0.486076
w 200 199 -184 0.27443
w 200 -199 184 0.624763
w 200 -199 -184 0.624892
w 201 200 185 0.0119009
w 201 200 -185 0.988975
w 201 -200 185 0.140287
w 201 -200 -185 0.734745
w 202 201 186 0
w 202 201 -186 0
w 202 -201 186 1
w 202 -201 -186 0
w 203 202 187 0
w 203 202 -187 0
w 203 -202 187 1
w 203 -202 -187 0
w 204 203 188 0.929553
w 204 203 -188 0.132017
w 204 -203 188 0.0395197
w 204 -203 -188 0.718567
w 205 204 189 0.513586
w 205 204 -189 0.184129
w 205 -204 189 0.824125
w 205 -204 -189 0.832125
w 206 205 190 0.399788
w 206 205 -190 0.3182
w 206 -205 190 0.144654
w 206 -205 -190 0.0245504
w 207 206 191 0.702502
w 207 206 -191 0.0364513
w 207 -206 191 0.932068
w 207 -206 -191 0.842789
w 208 207 192 0.334639
w 208 207 -192 0.0738206
w 208 -207 192 0.821932
w 208 -207 -192 0.985308
w 209 193 0.252825
w 209 -193 0.187084
w 210 209 194 1
w 210 209 -194 0
w 210 -209 194 1
w 210 -209 -194 1
w 211 210 195 1
w 211 210 -195 0
w 211 -210 195 1
w 211 -210 -195 1
w 212 211 196 1
w 212 211 -196 1
w 212 -211 196 1
w 212 -211 -196 0
w 213 212 197 1
w 213 212 -197 0
w 213 -212 197 1
w 213 -212 -197 1
w 214 213 198 0.818152
w 214 213 -198 0.0273751
w 214 -213 198 0.968291
w 214 -213 -198 0.891972
w 215 214 199 0.953599
w 215 214 -199 0.65322
w 215 -214 199 0.102132
w 215 -214 -199 0.140683
w 216 215 200 1
w 216 215 -200 1
w 216 -215 200 0
w 216 -215 -200 0
w 217 216 201 0
w 217 216 -201 0
w 217 -216 201 0
w 217 -216 -201 1
w 218 217 202 1
w 218 217 -202 0
w 218 -217 202 0
w 218 -217 -202 0
w 219 218 203 0.61606
w 219 218 -203 0.377379
w 219 -218 203 0.697698
w 219 -218 -203 0.591423
w 220 219 204 0.331349
w 220 219 -204 0.409575
w 220 -219 204 0.660933
w 220 -219 -204 0.299639
w 221 220 205 1
w 221 220 -205 0
w 221 -220 205 0
w 221 -220 -205 1
w 222 221 206 1
w 222 221 -206 0
w 222 -221 206 0
w 222 -221 -206 0
w 223 222 207 0.278053
w 223 222 -207 0.980403
w 223 -222 207 0.859067
w 223 -222 -207 0.0753862
w 224 223 208 0
w 224 223 -208 1
w 224 -223 208 0
w 224 -223 -208 0
w 225 209 0
w 225 -209 1
w 226 225 210 0
w 226 225 -210 0
w 226 -225 210 1
w 226 -225 -210 0
w 227 226 211 1
w 227 226 -211 1
w 227 -226 211 0
w 227 -226 -211 0
w 228 227 212 0.411969
w 228 227 -212 0.773671
w 228 -227 212 0.28497
w 228 -227 -212 0.406265
w 229 228 213 0.781134
w 229 228 -213 0.49515
w 229 -228 213 0.937303
w 229 -228 -213 0.473117
w 230 229 214 0.917706
w 230 229 -214 0.332184
w 230 -229 214 0.848588
w 230 -229 -214 0.113101
w 231 230 215 1
w 231 230 -215 0
w 231 -230 215 0
w 231 -230 -215 1
w 232 231 216 0.489486
w 232 231 -216 0.477545
w 232 -231 216 0.552431
w 232 -231 -216 0.479614
w 233 232 217 0.708085
w 233 232 -217 0.130674
w 233 -232 217 0.453526
w 233 -232 -217 0.165286
w 234 233 218 1
w 234 233 -218 0
w 234 -233 218 0
w 234 -233 -218 1
w 235 234 219 0.979555
w 235 234 -219 0.410678
w 235 -234 219 0.47867
w 235 -234 -219 0.916858
w 236 235 220 0.251872
w 236 235 -220 0.834564
w 236 -235 220 0.215979
w 236 -235 -220 0.100461
w 237 236 221 0.369703
w 237 236 -221 0.262059
w 237 -236 221 0.599361
w 237 -236 -221 0.502619
w 238 237 222 0.405713
w 238 237 -222 0.992105
w 238 -237 222 0.210326
w 238 -237 -222 0.958144
w 239 238 223 0
w 239 238 -223 0
w 239 -238 223 0
w 239 -238 -223 1
w 240 239 224 0.824141
w 240 239 -224 0.408771
w 240 -239 224 0.960011
w 240 -239 -224 0.453685
w 241 225 0
w 241 -225 1
w 242 241 226 0.870962
w 242 241 -226 0.856424
w 242 -241 226 0.748158
w 242 -241 -226 0.122835
w 243 242 227 0.964137
w 243 242 -227 0.223296
w 243 -242 227 0.638652
w 243 -242 -227 0.33384
w 244 243 228 0
w 244 243 -228 1
w 244 -243 228 0
w 244 -243 -228 0
w 245 244 229 0.428462
w 245 244 -229 0.601871
w 245 -244 229 0.300282
w 245 -244 -229 0.454504
w 246 245 230 0
w 246 245 -230 1
w 246 -245 230 1
w 246 -245 -230 0
w 247 246 231 0.508388
w 247 246 -231 0.757052
w 247 -246 231 0.211897
w 247 -246 -231 0.90068
w 248 247 232 0.0762607
w 248 247 -232 0.771642
w 248 -247 232 0.553043
w 248 -247 -232 0.824419
w 249 248 233 0.24403
w 249 248 -233 0.788556
w 249 -248 233 0.117773
w 249 -248 -233 0.882683
w 250 249 234 0
w 250 249 -234 1
w 250 -249 234 1
w 250 -249 -234 0
w 251 250 235 0.787419
w 251 250 -235 0.249726
w 251 -250 235 0.366294
w 251 -250 -235 0.0877007
w 252 251 236 0.634395
w 252 251 -236 0.990375
w 252 -251 236 0.6383
w 252 -251 -236 0.734012
w 253 252 237 0.396512
w 253 252 -237 0.2424
w 253 -252 237 0.544468
w 253 -252 -237 0.60841
w 254 253 238 1
w 254 253 -238 0
w 254 -253 238 0
w 254 -253 -238 0
w 255 254 239 0.809199
w 255 254 -239 0.0381589
w 255 -254 239 0.297646
w 255 -254 -239 0.926972
w 256 255 240 0.420042
w 256 255 -240 0.530099
w 256 -255 240 0.041538
w 256 -255 -240 0.378897